
  22    4
  10   10   10   10

   0   0   0   0   0   4 2 4 6 7 
   5  10  10  10  10   2 5 3 
   3  10  10  10  10   3 10 9 8 
   5  10  10  10  10   1 5 
   7  10  10  10  10   3 11 10 8 
   6  10  10  10  10   2 11 8 
   7  10  10  10  10   2 11 8 
   4  10  10  10  10   4 17 14 13 12 
   4  10  10  10  10   3 13 12 11 
   6  10  10  10  10   3 17 14 12 
   4  10  10  10  10   4 21 20 17 15 
   1  10  10  10  10   4 21 20 19 15 
   8  10  10  10  10   2 19 16 
   7  10  10  10  10   1 15 
   5  10  10  10  10   1 16 
   1  10  10  10  10   1 18 
   2  10  10  10  10   1 19 
   1  10  10  10  10   1 22
   4  10  10  10  10   1 22
  10  10  10  10  10   1 22
   8  10  10  10  10   1 22
   0   0   0   0   0   0 
